1 3 100 27448.71
1 3 200 27889.36
1 3 300 27911.87
2 3 100 32450.12
2 3 200 33307.99
2 3 300 33069.09
3 3 100 33735.57
3 3 200 33487.99
3 3 300 34093.68
4 3 100 33543.13
4 3 200 33165.83
4 3 300 33863.79
5 3 100 31947.33
5 3 200 32237.58
5 3 300 32163.99
